CPXPARAM_TimeLimit                               3600
CPXPARAM_Read_DataCheck                          1
CPXPARAM_MIP_Strategy_HeuristicFreq              -1
CPXPARAM_Output_IntSolFilePrefix                 "solucoes/t_SH_ID000M003J005_ZintTrue_manne/sol"
Tried aggregator 1 time.
Reduced MIP has 75 rows, 46 columns, and 210 nonzeros.
Reduced MIP has 30 binaries, 0 generals, 0 SOSs, and 0 indicators.
Presolve time = 0.00 sec. (0.08 ticks)
Probing time = 0.00 sec. (0.01 ticks)
Tried aggregator 1 time.
Reduced MIP has 75 rows, 46 columns, and 210 nonzeros.
Reduced MIP has 30 binaries, 0 generals, 0 SOSs, and 0 indicators.
Presolve time = 0.00 sec. (0.10 ticks)
Probing time = 0.00 sec. (0.01 ticks)
MIP emphasis: balance optimality and feasibility.
MIP search method: dynamic search.
Parallel mode: deterministic, using up to 8 threads.
Root relaxation solution time = 0.00 sec. (0.11 ticks)

        Nodes                                         Cuts/
   Node  Left     Objective  IInf  Best Integer    Best Bound    ItCnt     Gap

      0     0       23.0000    11                     23.0000       22         
      0     0       25.4000     9                    Cuts: 23       52         
      0     0       29.0000     7                    Cuts: 28       64         
      0     0       29.0000     8                     Cuts: 7       71         
      0     0       29.0000     8                     Cuts: 5       75         
      0     2       29.0000     8                     29.0000       75         
Elapsed time = 0.00 sec. (1.90 ticks, tree = 0.01 MB, solutions = 0)
*    18    10      integral     0       35.0000       29.0000      116   17.14%
New incumbent written to file 'solucoes/t_SH_ID000M003J005_ZintTrue_manne/sol-00001.sol'.
*    39    18      integral     0       33.0000       29.0000      144   12.12%
New incumbent written to file 'solucoes/t_SH_ID000M003J005_ZintTrue_manne/sol-00002.sol'.

Implied bound cuts applied:  2
Flow cuts applied:  3
Mixed integer rounding cuts applied:  9
Gomory fractional cuts applied:  1

Root node processing (before b&c):
  Real time             =    0.00 sec. (1.86 ticks)
Parallel b&c, 8 threads:
  Real time             =    0.00 sec. (0.94 ticks)
  Sync time (average)   =    0.00 sec.
  Wait time (average)   =    0.00 sec.
                          ------------
Total (root+branch&cut) =    0.01 sec. (2.81 ticks)
